
Log started (V11.0.0) Sun Apr 13 13:22:43 2008

Tried aggregator 1 time.
Reduced MIP has 210 rows, 2001 columns, and 4010 nonzeros.
Presolve time =    0.02 sec.
Clique table members: 200.
MIP emphasis: balance optimality and feasibility.
MIP search method: dynamic search.
Parallel mode: none, using 1 thread.
Root relaxation solution time =    0.03 sec.

        Nodes                                         Cuts/
   Node  Left     Objective  IInf  Best Integer     Best Node    ItCnt     Gap

*     0+    0                         9725.0000      195.5114      302   97.99%
*     0+    0                          202.0000      195.5114      302    3.21%
      0     0      196.0000    19      202.0000     Fract: 12      313    2.97%
      0     0      196.0000    20      202.0000     Covers: 1      324    2.97%
      0     0      196.0000    29      202.0000     Covers: 5      362    2.97%

Repeating presolve.
Tried aggregator 1 time.
MIP Presolve eliminated 0 rows and 653 columns.
Aggregator did 1 substitutions.
Reduced MIP has 209 rows, 1347 columns, and 2702 nonzeros.
Tried aggregator 1 time.
Represolve time =    0.05 sec.
Clique table members: 199.
MIP emphasis: balance optimality and feasibility.
MIP search method: dynamic search.
Parallel mode: none, using 1 thread.
Root relaxation solution time =    0.03 sec.

        Nodes                                         Cuts/
   Node  Left     Objective  IInf  Best Integer     Best Node    ItCnt     Gap

      0     0      196.0000    21      202.0000      196.0000      228    2.97%
*     0+    0                          201.0000      196.0000      228    2.49%
*     0+    0                          200.0000      196.0000      228    2.00%
      0     2      196.0000    21      200.0000      196.0000      228    2.00%
    100    72      198.0000    12      200.0000      196.0000     2828    2.00%
*   200+  124                          199.0000      197.0000     4971    1.01%
    200   126      197.0000    23      199.0000      197.0000     4971    1.01%
    300   192      198.0000    23      199.0000      197.0000     7725    1.01%
    400   263      198.0000    20      199.0000      197.0000    11224    1.01%
    500   320      198.0000    17      199.0000      197.0000    16581    1.01%
*   574   172      integral     0      198.0000      197.0000    19904    0.51%
    600   173      197.0000    35      198.0000      197.0000    21939    0.51%
    700   146      197.0000    52      198.0000      197.0000    31486    0.51%
    800   135      197.0000    53      198.0000      197.0000    42398    0.51%
    900   200      197.0000    60      198.0000      197.0000    50139    0.51%
   1000   256      197.0000    54      198.0000      197.0000    62015    0.51%
Elapsed time =  12.36 sec. (tree size =  0.09 MB, solutions = 6)
   1100   290    infeasible            198.0000      197.0000    75907    0.51%
   1200   347    infeasible            198.0000      197.0000    89016    0.51%
   1300   393      197.0000    52      198.0000      197.0000   102634    0.51%
   1400   409    infeasible            198.0000      197.0000   122739    0.51%
   1500   441    infeasible            198.0000      197.0000   138178    0.51%
   1600   443    infeasible            198.0000      197.0000   159208    0.51%
   1700   461    infeasible            198.0000      197.0000   178541    0.51%
   1800   517      197.0000    72      198.0000      197.0000   196604    0.51%
   1900   503    infeasible            198.0000      197.0000   219865    0.51%
   2000   531      197.0000    55      198.0000      197.0000   239060    0.51%
Elapsed time =  42.09 sec. (tree size =  0.21 MB, solutions = 6)
   2100   567    infeasible            198.0000      197.0000   255072    0.51%
   2200   591      197.0000    77      198.0000      197.0000   279285    0.51%
   2300   599    infeasible            198.0000      197.0000   304553    0.51%
   2400   591      197.0000    85      198.0000      197.0000   330270    0.51%
   2500   552      197.0000    75      198.0000      197.0000   363558    0.51%
   2600   539    infeasible            198.0000      197.0000   392246    0.51%
   2700   533    infeasible            198.0000      197.0000   415530    0.51%
   2800   511    infeasible            198.0000      197.0000   440062    0.51%
   2900   519      197.0000   106      198.0000      197.0000   462457    0.51%
   3000   513      197.0000    62      198.0000      197.0000   486142    0.51%
Elapsed time =  96.64 sec. (tree size =  0.21 MB, solutions = 6)
   3100   537      197.0000    76      198.0000      197.0000   502253    0.51%
   3200   567    infeasible            198.0000      197.0000   525026    0.51%
   3300   589      197.0000    61      198.0000      197.0000   545792    0.51%
   3400   607    infeasible            198.0000      197.0000   564813    0.51%
   3500   567    infeasible            198.0000      197.0000   594218    0.51%
   3600   594      197.0000    72      198.0000      197.0000   614089    0.51%
   3700   566      197.0000   105      198.0000      197.0000   642482    0.51%
   3800   533    infeasible            198.0000      197.0000   667495    0.51%
   3900   517    infeasible            198.0000      197.0000   691453    0.51%
   4000   549    infeasible            198.0000      197.0000   711020    0.51%
Elapsed time = 145.50 sec. (tree size =  0.22 MB, solutions = 6)
   4100   553    infeasible            198.0000      197.0000   731703    0.51%
   4200   557    infeasible            198.0000      197.0000   751052    0.51%
   4300   559    infeasible            198.0000      197.0000   771851    0.51%
   4400   525    infeasible            198.0000      197.0000   800310    0.51%
   4500   535      197.0000    72      198.0000      197.0000   821535    0.51%
   4600   523      197.0000    92      198.0000      197.0000   843558    0.51%
   4700   481    infeasible            198.0000      197.0000   868400    0.51%
   4800   463    infeasible            198.0000      197.0000   895573    0.51%
   4900   419    infeasible            198.0000      197.0000   924524    0.51%
   5000   403      197.0000    69      198.0000      197.0000   948725    0.51%
Elapsed time = 195.91 sec. (tree size =  0.17 MB, solutions = 6)
   5100   399      197.0000    56      198.0000      197.0000   968900    0.51%
   5200   370      197.0000    63      198.0000      197.0000   993496    0.51%
   5300   374      197.0000    55      198.0000      197.0000  1012995    0.51%
   5400   358    infeasible            198.0000      197.0000  1034960    0.51%
   5500   335    infeasible            198.0000      197.0000  1055880    0.51%
   5600   337    infeasible            198.0000      197.0000  1073007    0.51%
   5700   313    infeasible            198.0000      197.0000  1096898    0.51%
   5800   303    infeasible            198.0000      197.0000  1120846    0.51%
   5900   293    infeasible            198.0000      197.0000  1143744    0.51%
   6000   283    infeasible            198.0000      197.0000  1164404    0.51%
Elapsed time = 242.36 sec. (tree size =  0.13 MB, solutions = 6)
   6100   239    infeasible            198.0000      197.0000  1190520    0.51%
   6200   187    infeasible            198.0000      197.0000  1217270    0.51%
   6300   163    infeasible            198.0000      197.0000  1245465    0.51%
   6400   153    infeasible            198.0000      197.0000  1269586    0.51%
   6500   160      197.0000    83      198.0000      197.0000  1289506    0.51%
   6600   103      197.0000    77      198.0000      197.0000  1317457    0.51%
   6700    87    infeasible            198.0000      197.0000  1338964    0.51%
   6800    70    infeasible            198.0000      197.0000  1362229    0.51%
   6900    50    infeasible            198.0000      197.0000  1385202    0.51%
   7000    42    infeasible            198.0000      197.0000  1411035    0.51%
Elapsed time = 293.55 sec. (tree size =  0.03 MB, solutions = 6)
   7100    22      197.0000    98      198.0000      197.0000  1436993    0.51%
   7200    16    infeasible            198.0000      197.0000  1458277    0.51%

Cover cuts applied:  732
Mixed integer rounding cuts applied:  36
Zero-half cuts applied:  2
Gomory fractional cuts applied:  5

Solution pool: 6 solutions saved.

MIP - Integer optimal solution:  Objective = 1.9800000000e+002
Solution time =  306.83 sec.  Iterations = 1472240  Nodes = 7261


Incumbent solution
Variable Name           Solution Value
Cmax                        198.000000
X_1_7                         1.000000
X_2_9                         1.000000
X_3_3                         1.000000
X_4_6                         1.000000
X_5_1                         1.000000
X_6_1                         1.000000
X_7_10                        1.000000
X_8_8                         1.000000
X_9_4                         1.000000
X_10_5                        1.000000
X_11_10                       1.000000
X_12_8                        1.000000
X_13_1                        1.000000
X_14_6                        1.000000
X_15_5                        1.000000
X_16_3                        1.000000
X_17_6                        1.000000
X_18_5                        1.000000
X_19_9                        1.000000
X_20_3                        1.000000
X_21_5                        1.000000
X_22_6                        1.000000
X_23_6                        1.000000
X_24_10                       1.000000
X_25_9                        1.000000
X_26_9                        1.000000
X_27_3                        1.000000
X_28_5                        1.000000
X_29_9                        1.000000
X_30_1                        1.000000
X_31_3                        1.000000
X_32_9                        1.000000
X_33_9                        1.000000
X_34_5                        1.000000
X_35_10                       1.000000
X_36_1                        1.000000
X_37_2                        1.000000
X_38_4                        1.000000
X_39_7                        1.000000
X_40_9                        1.000000
X_41_4                        1.000000
X_42_8                        1.000000
X_43_1                        1.000000
X_44_2                        1.000000
X_45_5                        1.000000
X_46_5                        1.000000
X_47_9                        1.000000
X_48_2                        1.000000
X_49_3                        1.000000
X_50_6                        1.000000
X_51_8                        1.000000
X_52_7                        1.000000
X_53_8                        1.000000
X_54_1                        1.000000
X_55_4                        1.000000
X_56_3                        1.000000
X_57_8                        1.000000
X_58_10                       1.000000
X_59_10                       1.000000
X_60_7                        1.000000
X_61_5                        1.000000
X_62_2                        1.000000
X_63_5                        1.000000
X_64_3                        1.000000
X_65_4                        1.000000
X_66_9                        1.000000
X_67_1                        1.000000
X_68_4                        1.000000
X_69_10                       1.000000
X_70_8                        1.000000
X_71_2                        1.000000
X_72_3                        1.000000
X_73_7                        1.000000
X_74_6                        1.000000
X_75_8                        1.000000
X_76_3                        1.000000
X_77_5                        1.000000
X_78_2                        1.000000
X_79_4                        1.000000
X_80_9                        1.000000
X_81_7                        1.000000
X_82_6                        1.000000
X_83_5                        1.000000
X_84_8                        1.000000
X_85_1                        1.000000
X_86_10                       1.000000
X_87_7                        1.000000
X_88_2                        1.000000
X_89_6                        1.000000
X_90_5                        1.000000
X_91_9                        1.000000
X_92_7                        1.000000
X_93_8                        1.000000
X_94_3                        1.000000
X_95_4                        1.000000
X_96_6                        1.000000
X_97_6                        1.000000
X_98_4                        1.000000
X_99_10                       1.000000
X_100_6                       1.000000
X_101_3                       1.000000
X_102_10                      1.000000
X_103_10                      1.000000
X_104_10                      1.000000
X_105_9                       1.000000
X_106_10                      1.000000
X_107_7                       1.000000
X_108_9                       1.000000
X_109_9                       1.000000
X_110_6                       1.000000
X_111_5                       1.000000
X_112_7                       1.000000
X_113_10                      1.000000
X_114_4                       1.000000
X_115_7                       1.000000
X_116_3                       1.000000
X_117_4                       1.000000
X_118_7                       1.000000
X_119_10                      1.000000
X_120_10                      1.000000
X_121_8                       1.000000
X_122_6                       1.000000
X_123_10                      1.000000
X_124_9                       1.000000
X_125_4                       1.000000
X_126_2                       1.000000
X_127_9                       1.000000
X_128_6                       1.000000
X_129_2                       1.000000
X_130_5                       1.000000
X_131_10                      1.000000
X_132_4                       1.000000
X_133_9                       1.000000
X_134_9                       1.000000
X_135_10                      1.000000
X_136_8                       1.000000
X_137_7                       1.000000
X_138_2                       1.000000
X_139_10                      1.000000
X_140_2                       1.000000
X_141_3                       1.000000
X_142_5                       1.000000
X_143_3                       1.000000
X_144_8                       1.000000
X_145_5                       1.000000
X_146_5                       1.000000
X_147_9                       1.000000
X_148_4                       1.000000
X_149_4                       1.000000
X_150_3                       1.000000
X_151_3                       1.000000
X_152_3                       1.000000
X_153_1                       1.000000
X_154_8                       1.000000
X_155_5                       1.000000
X_156_8                       1.000000
X_157_9                       1.000000
X_158_7                       1.000000
X_159_6                       1.000000
X_160_6                       1.000000
X_161_7                       1.000000
X_162_7                       1.000000
X_163_10                      1.000000
X_164_10                      1.000000
X_165_10                      1.000000
X_166_4                       1.000000
X_167_5                       1.000000
X_168_1                       1.000000
X_169_4                       1.000000
X_170_2                       1.000000
X_171_5                       1.000000
X_172_10                      1.000000
X_173_10                      1.000000
X_174_1                       1.000000
X_175_6                       1.000000
X_176_1                       1.000000
X_177_7                       1.000000
X_178_1                       1.000000
X_179_1                       1.000000
X_180_1                       1.000000
X_181_3                       1.000000
X_182_9                       1.000000
X_183_8                       1.000000
X_184_7                       1.000000
X_185_3                       1.000000
X_186_3                       1.000000
X_187_3                       1.000000
X_188_6                       1.000000
X_189_1                       1.000000
X_190_8                       1.000000
X_191_6                       1.000000
X_192_5                       1.000000
X_193_8                       1.000000
X_194_2                       1.000000
X_195_1                       1.000000
X_196_1                       1.000000
X_197_7                       1.000000
X_198_2                       1.000000
X_199_6                       1.000000
X_200_6                       1.000000
All other variables in the range 1-2001 are 0.
